p tw 288 1024
1 33
2 34
3 35
4 36
5 37
6 38
7 39
8 40
9 41
10 42
11 43
12 44
13 45
14 46
15 47
16 48
17 49
18 50
19 51
20 52
21 53
22 54
23 55
24 56
25 57
26 58
27 59
28 60
29 61
30 62
31 63
32 64
33 84
33 107
33 137
33 155
33 157
34 80
34 110
34 127
34 158
34 160
35 94
35 95
35 96
35 97
35 98
36 101
36 105
36 129
36 136
36 139
37 102
37 126
37 130
37 140
37 142
38 119
38 125
38 126
38 127
38 128
39 68
39 131
39 143
39 145
39 146
40 89
40 96
40 147
40 148
40 149
41 65
41 70
41 75
41 76
41 77
42 87
42 112
42 115
42 116
42 117
43 71
43 78
43 79
43 80
43 81
44 99
44 104
44 109
44 110
44 111
45 86
45 87
45 88
45 89
45 90
46 70
46 71
46 72
46 73
46 74
47 104
47 105
47 106
47 107
47 108
48 88
48 92
48 115
48 140
48 141
49 65
49 66
49 67
49 68
49 69
50 99
50 100
50 101
50 102
50 103
51 83
51 116
51 132
51 152
51 154
52 91
52 118
52 122
52 123
52 124
53 78
53 100
53 112
53 113
53 114
54 113
54 118
54 119
54 120
54 121
55 72
55 94
55 125
55 134
55 135
56 82
56 97
56 148
56 152
56 153
57 67
57 95
57 106
57 143
57 144
58 73
58 79
58 136
58 137
58 138
59 122
59 134
59 147
59 150
59 151
60 66
60 82
60 83
60 84
60 85
61 76
61 123
61 145
61 158
61 159
62 75
62 86
62 91
62 92
62 93
63 109
63 120
63 150
63 155
63 156
64 129
64 130
64 131
64 132
64 133
65 66
65 67
65 68
65 69
65 70
65 75
65 76
65 77
66 67
66 68
66 69
66 82
66 83
66 84
66 85
67 68
67 69
67 95
67 106
67 143
67 144
68 69
68 131
68 143
68 145
68 146
69 161
69 162
69 163
69 164
69 165
70 71
70 72
70 73
70 74
70 75
70 76
70 77
71 72
71 73
71 74
71 78
71 79
71 80
71 81
72 73
72 74
72 94
72 125
72 134
72 135
73 74
73 79
73 136
73 137
73 138
74 166
74 167
74 168
74 169
74 170
75 76
75 77
75 86
75 91
75 92
75 93
76 77
76 123
76 145
76 158
76 159
77 161
77 166
77 171
77 172
77 173
78 79
78 80
78 81
78 100
78 112
78 113
78 114
79 80
79 81
79 136
79 137
79 138
80 81
80 110
80 127
80 158
80 160
81 167
81 174
81 175
81 176
81 177
82 83
82 84
82 85
82 97
82 148
82 152
82 153
83 84
83 85
83 116
83 132
83 152
83 154
84 85
84 107
84 137
84 155
84 157
85 162
85 178
85 179
85 180
85 181
86 87
86 88
86 89
86 90
86 91
86 92
86 93
87 88
87 89
87 90
87 112
87 115
87 116
87 117
88 89
88 90
88 92
88 115
88 140
88 141
89 90
89 96
89 147
89 148
89 149
90 182
90 183
90 184
90 185
90 186
91 92
91 93
91 118
91 122
91 123
91 124
92 93
92 115
92 140
92 141
93 171
93 182
93 187
93 188
93 189
94 95
94 96
94 97
94 98
94 125
94 134
94 135
95 96
95 97
95 98
95 106
95 143
95 144
96 97
96 98
96 147
96 148
96 149
97 98
97 148
97 152
97 153
98 190
98 191
98 192
98 193
98 194
99 100
99 101
99 102
99 103
99 104
99 109
99 110
99 111
100 101
100 102
100 103
100 112
100 113
100 114
101 102
101 103
101 105
101 129
101 136
101 139
102 103
102 126
102 130
102 140
102 142
103 195
103 196
103 197
103 198
103 199
104 105
104 106
104 107
104 108
104 109
104 110
104 111
105 106
105 107
105 108
105 129
105 136
105 139
106 107
106 108
106 143
106 144
107 108
107 137
107 155
107 157
108 200
108 201
108 202
108 203
108 204
109 110
109 111
109 120
109 150
109 155
109 156
110 111
110 127
110 158
110 160
111 195
111 200
111 205
111 206
111 207
112 113
112 114
112 115
112 116
112 117
113 114
113 118
113 119
113 120
113 121
114 174
114 196
114 208
114 209
114 210
115 116
115 117
115 140
115 141
116 117
116 132
116 152
116 154
117 183
117 208
117 211
117 212
117 213
118 119
118 120
118 121
118 122
118 123
118 124
119 120
119 121
119 125
119 126
119 127
119 128
120 121
120 150
120 155
120 156
121 209
121 214
121 215
121 216
121 217
122 123
122 124
122 134
122 147
122 150
122 151
123 124
123 145
123 158
123 159
124 187
124 214
124 218
124 219
124 220
125 126
125 127
125 128
125 134
125 135
126 127
126 128
126 130
126 140
126 142
127 128
127 158
127 160
128 215
128 221
128 222
128 223
128 224
129 130
129 131
129 132
129 133
129 136
129 139
130 131
130 132
130 133
130 140
130 142
131 132
131 133
131 143
131 145
131 146
132 133
132 152
132 154
133 225
133 226
133 227
133 228
133 229
134 135
134 147
134 150
134 151
135 168
135 190
135 221
135 230
135 231
136 137
136 138
136 139
137 138
137 155
137 157
138 169
138 175
138 232
138 233
138 234
139 197
139 201
139 225
139 232
139 235
140 141
140 142
141 184
141 188
141 211
141 236
141 237
142 198
142 222
142 226
142 236
142 238
143 144
143 145
143 146
144 163
144 191
144 202
144 239
144 240
145 146
145 158
145 159
146 164
146 227
146 239
146 241
146 242
147 148
147 149
147 150
147 151
148 149
148 152
148 153
149 185
149 192
149 243
149 244
149 245
150 151
150 155
150 156
151 218
151 230
151 243
151 246
151 247
152 153
152 154
153 178
153 193
153 244
153 248
153 249
154 179
154 212
154 228
154 248
154 250
155 156
155 157
156 205
156 216
156 246
156 251
156 252
157 180
157 203
157 233
157 251
157 253
158 159
158 160
159 172
159 219
159 241
159 254
159 255
160 176
160 206
160 223
160 254
160 256
161 162
161 163
161 164
161 165
161 166
161 171
161 172
161 173
162 163
162 164
162 165
162 178
162 179
162 180
162 181
163 164
163 165
163 191
163 202
163 239
163 240
164 165
164 227
164 239
164 241
164 242
165 272
166 167
166 168
166 169
166 170
166 171
166 172
166 173
167 168
167 169
167 170
167 174
167 175
167 176
167 177
168 169
168 170
168 190
168 221
168 230
168 231
169 170
169 175
169 232
169 233
169 234
170 275
171 172
171 173
171 182
171 187
171 188
171 189
172 173
172 219
172 241
172 254
172 255
173 280
174 175
174 176
174 177
174 196
174 208
174 209
174 210
175 176
175 177
175 232
175 233
175 234
176 177
176 206
176 223
176 254
176 256
177 278
178 179
178 180
178 181
178 193
178 244
178 248
178 249
179 180
179 181
179 212
179 228
179 248
179 250
180 181
180 203
180 233
180 251
180 253
181 261
182 183
182 184
182 185
182 186
182 187
182 188
182 189
183 184
183 185
183 186
183 208
183 211
183 212
183 213
184 185
184 186
184 188
184 211
184 236
184 237
185 186
185 192
185 243
185 244
185 245
186 276
187 188
187 189
187 214
187 218
187 219
187 220
188 189
188 211
188 236
188 237
189 259
190 191
190 192
190 193
190 194
190 221
190 230
190 231
191 192
191 193
191 194
191 202
191 239
191 240
192 193
192 194
192 243
192 244
192 245
193 194
193 244
193 248
193 249
194 286
195 196
195 197
195 198
195 199
195 200
195 205
195 206
195 207
196 197
196 198
196 199
196 208
196 209
196 210
197 198
197 199
197 201
197 225
197 232
197 235
198 199
198 222
198 226
198 236
198 238
199 271
200 201
200 202
200 203
200 204
200 205
200 206
200 207
201 202
201 203
201 204
201 225
201 232
201 235
202 203
202 204
202 239
202 240
203 204
203 233
203 251
203 253
204 274
205 206
205 207
205 216
205 246
205 251
205 252
206 207
206 223
206 254
206 256
207 277
208 209
208 210
208 211
208 212
208 213
209 210
209 214
209 215
209 216
209 217
210 268
211 212
211 213
211 236
211 237
212 213
212 228
212 248
212 250
213 279
214 215
214 216
214 217
214 218
214 219
214 220
215 216
215 217
215 221
215 222
215 223
215 224
216 217
216 246
216 251
216 252
217 267
218 219
218 220
218 230
218 243
218 246
218 247
219 220
219 241
219 254
219 255
220 269
221 222
221 223
221 224
221 230
221 231
222 223
222 224
222 226
222 236
222 238
223 224
223 254
223 256
224 283
225 226
225 227
225 228
225 229
225 232
225 235
226 227
226 228
226 229
226 236
226 238
227 228
227 229
227 239
227 241
227 242
228 229
228 248
228 250
229 257
230 231
230 243
230 246
230 247
231 266
232 233
232 234
232 235
233 234
233 251
233 253
234 263
235 285
236 237
236 238
237 273
238 284
239 240
239 241
239 242
240 264
241 242
241 254
241 255
242 282
243 244
243 245
243 246
243 247
244 245
244 248
244 249
245 281
246 247
246 251
246 252
247 262
248 249
248 250
249 265
250 270
251 252
251 253
252 258
253 288
254 255
254 256
255 260
256 287
